========================================================== 
File name: C:\DEGR\assets\definitions\MSRCPSP_Gen\500_10_512_5_D.def
Creation date: Sat May 06 09:15:13 CEST 2023
Website: http://imopse.ii.pwr.edu.pl/ 
Reference: 
Myszkowski P. B., Skowronski M. E., Olech L., Oslizlo K., 
Hybrid Ant Colony Optimization in solving Multi-Skill Resource-Constrained Project Scheduling Problem, 
Soft Computing, DOI: DOI 10.1007/s00500-014-1455-x 
========================================================== 
General characteristics: 
Tasks: 500
Resources: 10
Precedence relations: 511
Number of skill types: 5
========================================================== 
ResourceID 	 Salary 	 Skills 
1	 	 	78.8	 	 Q2: 2 	  Q4: 1 	  Q1: 1 	  Q3: 0 	 
2	 	 	34.2	 	 Q1: 3 	 
3	 	 	39.7	 	 Q1: 1 	  Q0: 1 	 
4	 	 	48.0	 	 Q4: 3 	  Q2: 2 	  Q3: 0 	 
5	 	 	92.3	 	 Q0: 0 	  Q4: 1 	  Q3: 2 	 
6	 	 	12.2	 	 Q3: 2 	 
7	 	 	22.8	 	 Q2: 3 	  Q3: 0 	  Q0: 2 	  Q1: 0 	 
8	 	 	34.1	 	 Q4: 3 	 
9	 	 	55.5	 	 Q3: 0 	  Q4: 3 	  Q1: 3 	 
10	 	 	83.9	 	 Q3: 0 	  Q2: 3 	 
========================================================== 
TaskID 	 Duration 	 Skill 	 Predecessor IDs 
1	16	Q1:	1
2	30	Q0:	1
3	24	Q4:	1
4	35	Q0:	1
5	12	Q0:	1
6	28	Q0:	2
7	9	Q2:	2
8	30	Q1:	3
9	34	Q1:	1
10	30	Q1:	3
11	38	Q4:	1
12	39	Q1:	1
13	40	Q0:	2
14	37	Q1:	0
15	23	Q1:	1	1
16	14	Q1:	1
17	12	Q2:	2
18	13	Q1:	3
19	28	Q1:	1
20	17	Q4:	1
21	17	Q0:	1
22	28	Q1:	3
23	30	Q1:	0
24	20	Q1:	1
25	38	Q1:	0
26	35	Q4:	1
27	20	Q2:	2
28	17	Q1:	0	3
29	12	Q3:	2
30	37	Q0:	1	3
31	40	Q4:	3
32	27	Q1:	0	3
33	21	Q4:	3
34	35	Q1:	3
35	23	Q3:	2
36	37	Q2:	2
37	26	Q1:	0
38	37	Q3:	0
39	31	Q2:	3
40	19	Q1:	1
41	37	Q4:	1	40
42	17	Q4:	3
43	40	Q4:	1
44	22	Q4:	3	31
45	27	Q2:	2
46	11	Q2:	2
47	23	Q1:	3
48	31	Q1:	0
49	28	Q3:	2
50	34	Q2:	3
51	37	Q0:	0	11
52	25	Q0:	0	1
53	35	Q2:	2
54	30	Q0:	1
55	26	Q2:	3
56	17	Q0:	1	34
57	37	Q4:	3
58	38	Q2:	2
59	9	Q3:	0
60	29	Q0:	0
61	28	Q1:	1
62	27	Q1:	3
63	14	Q4:	1	26
64	21	Q2:	3
65	23	Q1:	0
66	21	Q0:	0
67	18	Q2:	3
68	20	Q3:	0
69	14	Q4:	1
70	35	Q4:	3
71	16	Q0:	2
72	20	Q3:	2
73	9	Q1:	0	8
74	35	Q1:	1
75	29	Q4:	3
76	19	Q0:	2	51
77	13	Q4:	1
78	15	Q0:	1
79	39	Q3:	2
80	37	Q0:	0	25
81	21	Q2:	2
82	21	Q0:	1	27
83	21	Q1:	0
84	21	Q2:	3	18	28
85	34	Q0:	1	53
86	35	Q1:	0	76
87	12	Q0:	2
88	10	Q1:	0
89	25	Q3:	0	47
90	23	Q1:	1
91	26	Q4:	3
92	19	Q1:	1
93	30	Q2:	3
94	39	Q2:	3
95	9	Q0:	2	85
96	16	Q3:	2
97	14	Q4:	1
98	25	Q1:	0	18
99	37	Q1:	0
100	30	Q2:	3	83
101	13	Q3:	2
102	32	Q0:	2
103	27	Q4:	3	57
104	21	Q2:	3	57	24
105	29	Q0:	0	44
106	22	Q0:	1	26
107	31	Q3:	2
108	10	Q1:	1
109	37	Q4:	3	47
110	13	Q3:	0
111	27	Q2:	3	3
112	37	Q0:	2
113	15	Q0:	1	45
114	10	Q0:	1
115	33	Q2:	2	98
116	25	Q1:	0
117	23	Q1:	3
118	19	Q3:	0	45
119	31	Q2:	2	57
120	19	Q2:	2
121	20	Q2:	3
122	34	Q4:	3	71
123	37	Q3:	2
124	31	Q0:	2
125	32	Q3:	2	60
126	35	Q1:	0	88
127	26	Q1:	3
128	10	Q3:	0
129	11	Q1:	3
130	36	Q2:	2
131	17	Q1:	0	125
132	26	Q2:	3
133	24	Q0:	1
134	24	Q0:	0	73	103
135	16	Q2:	3
136	27	Q1:	0	9
137	31	Q4:	3
138	30	Q1:	1
139	12	Q3:	2
140	33	Q2:	3
141	15	Q4:	3	2	138
142	18	Q2:	2
143	22	Q0:	2
144	18	Q2:	3
145	40	Q2:	3
146	14	Q1:	3	49
147	22	Q0:	2
148	24	Q1:	0
149	38	Q4:	1	59
150	14	Q2:	3
151	15	Q2:	3	136	61
152	18	Q3:	2	126
153	34	Q3:	2	143	57
154	13	Q4:	3
155	10	Q0:	2
156	29	Q1:	3
157	23	Q1:	0	3
158	19	Q4:	1
159	28	Q0:	0	9
160	12	Q0:	0
161	40	Q3:	2
162	11	Q4:	1
163	23	Q0:	0
164	16	Q0:	1
165	34	Q1:	0	32
166	10	Q0:	1	21	117
167	36	Q0:	1	125
168	26	Q1:	1
169	32	Q1:	1	91	125
170	9	Q1:	0
171	20	Q1:	3	103
172	11	Q0:	2	19
173	10	Q4:	1
174	12	Q4:	1	72	25
175	12	Q1:	3	70	17
176	17	Q4:	1
177	26	Q2:	3	51	63
178	33	Q4:	1	123
179	25	Q2:	2
180	18	Q1:	0	30
181	20	Q3:	0
182	29	Q2:	2	60	102	12
183	30	Q0:	2	151
184	27	Q3:	2	32
185	13	Q4:	3	92	24	135
186	30	Q0:	2	126
187	30	Q1:	1
188	16	Q4:	1	166	24
189	11	Q4:	3
190	19	Q2:	2
191	11	Q4:	3	29
192	22	Q3:	0
193	30	Q2:	2
194	17	Q4:	3
195	25	Q1:	3	186	144
196	23	Q1:	1	28	79
197	21	Q4:	1	165	182	47	74
198	39	Q2:	3	108
199	10	Q0:	1	77	22
200	30	Q0:	1	84	37
201	18	Q2:	2
202	25	Q2:	3	55
203	9	Q1:	0
204	25	Q3:	2
205	27	Q4:	3	59
206	29	Q0:	0	125	28
207	19	Q3:	0
208	30	Q1:	1
209	22	Q1:	1	38
210	14	Q1:	3
211	12	Q1:	3	109	42
212	16	Q0:	1
213	36	Q4:	3	157
214	38	Q1:	1	117	159
215	23	Q1:	1	2	82
216	36	Q1:	1
217	16	Q1:	3
218	31	Q2:	2	155
219	27	Q0:	2	165
220	28	Q1:	0	107
221	11	Q0:	0	32
222	19	Q1:	0	97	135
223	20	Q0:	0
224	9	Q4:	1
225	40	Q2:	3	180	165	207	100
226	35	Q4:	3	145
227	36	Q0:	0
228	14	Q4:	3	190	227
229	29	Q4:	3
230	13	Q3:	2
231	20	Q0:	0	52
232	24	Q1:	3	113
233	21	Q4:	3	220
234	27	Q0:	0	190
235	32	Q0:	1	213
236	33	Q0:	2
237	40	Q3:	2
238	26	Q3:	0
239	21	Q4:	1
240	37	Q0:	2	22
241	12	Q2:	3
242	12	Q2:	2	51	7
243	25	Q1:	1
244	10	Q2:	3
245	10	Q2:	2	229
246	18	Q1:	3
247	17	Q1:	1
248	18	Q1:	0
249	10	Q4:	1
250	19	Q3:	2	31
251	37	Q0:	1	250
252	12	Q0:	2
253	20	Q0:	2	74
254	23	Q0:	0	166
255	12	Q1:	1	122
256	30	Q1:	3	53
257	12	Q0:	1	236
258	23	Q1:	1	95
259	30	Q4:	1
260	39	Q0:	2
261	20	Q2:	2	12
262	12	Q1:	3
263	32	Q0:	0	90
264	24	Q1:	3	232	2
265	23	Q4:	1
266	14	Q2:	3	187
267	15	Q0:	2	152
268	38	Q2:	3	72	88	84
269	28	Q4:	1	227	48
270	15	Q3:	0	115	88	200	231	73
271	13	Q3:	0	191
272	20	Q0:	2	85	103
273	20	Q3:	0
274	31	Q2:	2	196
275	11	Q1:	0
276	14	Q0:	1	86	237
277	34	Q1:	3	26
278	11	Q2:	3	109	208	105
279	28	Q4:	3
280	22	Q3:	2	184	190
281	31	Q3:	2	164
282	38	Q2:	3
283	16	Q0:	0	155
284	28	Q3:	2	113	209	184	62
285	20	Q3:	2
286	30	Q1:	0	82
287	20	Q0:	1
288	35	Q1:	1	16
289	12	Q0:	1	63
290	27	Q3:	0	185	261	172
291	35	Q1:	3	224
292	16	Q2:	3	101
293	35	Q1:	1	19
294	18	Q0:	0	132
295	9	Q0:	2	85	222	209
296	11	Q4:	1	242
297	19	Q1:	1	42
298	13	Q0:	2	162	56	246	59
299	27	Q3:	0	116	160	289
300	38	Q0:	0
301	21	Q1:	0	66	97
302	11	Q2:	3	253
303	9	Q2:	2	153	212
304	33	Q4:	3	24
305	38	Q1:	0	281
306	9	Q0:	2	78	171
307	9	Q0:	0	278	71	185	78
308	20	Q1:	3	179	2	56
309	39	Q4:	3	4
310	21	Q0:	0	61	81
311	28	Q1:	1
312	20	Q0:	2	27	97	139
313	30	Q4:	1	146
314	26	Q1:	0	85
315	16	Q0:	1
316	17	Q0:	1	233	92
317	28	Q0:	2
318	21	Q0:	1	221	150
319	28	Q2:	3
320	33	Q1:	3	108
321	29	Q3:	2	282	27
322	36	Q4:	3	320
323	40	Q4:	3	129
324	17	Q0:	2	49	322	145
325	29	Q2:	2	49
326	26	Q2:	2
327	32	Q4:	1	144
328	38	Q4:	1	280
329	33	Q0:	0	166	218	252
330	40	Q0:	1	177
331	11	Q3:	0	119
332	19	Q2:	3	198
333	19	Q2:	2	23	160
334	25	Q0:	2	316	254	41
335	26	Q4:	1
336	18	Q1:	3
337	23	Q1:	1	37	224
338	32	Q2:	3	260
339	27	Q4:	1	252
340	23	Q1:	1
341	33	Q0:	0	252	147
342	27	Q0:	1
343	34	Q3:	2	146	265	204
344	11	Q4:	1	111	154
345	17	Q1:	0
346	32	Q0:	2
347	13	Q1:	1	270	247	145
348	21	Q0:	1	144
349	22	Q0:	2	347
350	18	Q3:	0
351	26	Q2:	2
352	39	Q3:	0	183
353	9	Q1:	0	143
354	9	Q1:	3
355	29	Q0:	0	90	213	246	135
356	35	Q3:	2	288
357	16	Q1:	0
358	10	Q1:	0	199	302
359	18	Q4:	1
360	15	Q2:	2	135	121
361	34	Q3:	2
362	24	Q4:	3
363	34	Q3:	0	153	67	106	262
364	22	Q1:	1	156
365	27	Q4:	1	347	360
366	25	Q0:	0	322
367	38	Q1:	3	231
368	16	Q4:	1	223
369	25	Q3:	2	297
370	12	Q3:	0	105
371	25	Q1:	3
372	27	Q1:	0	253	106
373	14	Q4:	1	368	49
374	22	Q1:	0
375	22	Q1:	0	242	114
376	10	Q2:	3	120	366
377	18	Q1:	0	58
378	22	Q4:	3
379	39	Q0:	2	155
380	26	Q0:	0	130	44
381	38	Q0:	1	253
382	18	Q0:	1
383	28	Q1:	1	364
384	38	Q0:	2	139
385	26	Q1:	1	20	100
386	35	Q4:	3	127	262	69
387	38	Q2:	2	11
388	28	Q0:	1	211
389	17	Q1:	1
390	22	Q0:	0	45	234	288
391	14	Q1:	3	79
392	28	Q0:	0	297
393	33	Q0:	2	385	358	202
394	10	Q4:	1	334	361	226
395	38	Q1:	3	324	67
396	22	Q0:	0	160	7
397	20	Q2:	3	256
398	38	Q4:	1	281	88
399	38	Q0:	2	219
400	33	Q0:	1	209	212
401	15	Q4:	1	34	90	124
402	12	Q4:	1
403	32	Q0:	0	257
404	19	Q4:	1
405	25	Q4:	1	303
406	17	Q2:	3	164
407	37	Q2:	2	51
408	11	Q4:	1	356	209
409	11	Q0:	2	44	105
410	17	Q4:	1	251
411	26	Q3:	0	128	184	300
412	39	Q4:	1	148
413	18	Q2:	3	227	220	283	57
414	35	Q2:	2
415	13	Q3:	0	55
416	39	Q1:	1	299	226
417	38	Q1:	1	384
418	28	Q2:	3	288	212
419	15	Q2:	3	134	5	105
420	28	Q0:	0	86
421	22	Q1:	0	180
422	12	Q0:	0	82	103
423	27	Q1:	3	330
424	13	Q0:	1	58	153
425	16	Q0:	0
426	40	Q0:	2	43
427	38	Q1:	1	7	123
428	39	Q4:	3	327
429	21	Q1:	3	277
430	37	Q4:	3	4	355	267
431	39	Q3:	2	63	1	365	363
432	36	Q1:	0	417	132	229	11
433	27	Q4:	1
434	38	Q4:	1	8	61
435	13	Q0:	1	208	318	9	17	270
436	24	Q0:	0	435
437	23	Q1:	1	109	50	143
438	23	Q0:	1	75
439	22	Q1:	0	15	376
440	23	Q4:	1	72	320	126
441	28	Q3:	2
442	13	Q4:	3	356	146
443	14	Q0:	0	57	331	369
444	13	Q0:	1	372	160
445	18	Q1:	3	356
446	20	Q2:	2
447	25	Q2:	3
448	21	Q3:	0	341	260	263	12
449	13	Q4:	1	301
450	26	Q4:	1	258
451	18	Q3:	2	361	401
452	35	Q2:	2	51	263	23	85
453	30	Q3:	2	426
454	34	Q0:	2	17
455	16	Q1:	0	89	38
456	22	Q0:	1	277	96
457	27	Q2:	3	391	88	279	401
458	14	Q4:	1	421
459	17	Q2:	3	198
460	38	Q3:	0	59
461	29	Q2:	3	260	35
462	25	Q1:	1	129	28	121	106
463	26	Q2:	2	18	194
464	35	Q1:	3	59	12	317	52	429
465	32	Q2:	3	448
466	26	Q1:	0	338	116
467	38	Q0:	0	417
468	34	Q4:	1	285	290
469	15	Q0:	0	392	61
470	12	Q2:	3	335	76	355	437
471	9	Q4:	3	365	441	129
472	17	Q2:	3
473	13	Q3:	0	461
474	37	Q0:	2	410	66	401
475	17	Q0:	0	62	317
476	35	Q1:	3
477	40	Q0:	2	197
478	17	Q3:	0	150	424	165
479	35	Q0:	1	156	448	149	117	204
480	11	Q2:	3	168	91
481	22	Q4:	3	165	117
482	33	Q1:	3	297	104	213	346
483	28	Q4:	1	148	177
484	16	Q2:	2	452	274
485	21	Q0:	0	230	381
486	26	Q4:	1	362
487	23	Q0:	2	25	30	381
488	16	Q4:	1
489	17	Q1:	3	420
490	38	Q3:	0	452	388	8
491	17	Q2:	3	366	215
492	24	Q2:	2	149
493	39	Q2:	2	143
494	29	Q1:	3	271	133	334	302
495	39	Q4:	1	458	315
496	30	Q0:	1	331	281
497	38	Q4:	1	57	33	363	162
498	36	Q0:	2	1
499	38	Q1:	1	418	267	496
500	40	Q3:	0	322	192
========================================================== 